Route #1: 41 40 36 37 47 44 
Route #2: 22 4 39 14 3 24 31 28 11 21 
Route #3: 25 6 7 43 33 35 
Route #4: 29 51 27 8 5 10 
Route #5: 1 18 30 20 42 
Route #6: 19 26 13 34 9 16 48 
Route #7: 2 38 17 46 32 15 49 23 12 50 45 
cost 837.58